(set-logic QF_LRA)
(declare-fun fluent_counter_t3@1 () Real)
(declare-fun fluent_counter_t4@1 () Real)
(declare-fun fluent_busy_@1 () Bool)
(declare-fun fluent_started_i0_t0@0 () Bool)
(declare-fun fluent_started_i1_t0@0 () Bool)
(declare-fun fluent_started_i0_t1@0 () Bool)
(declare-fun fluent_started_i1_t1@0 () Bool)
(declare-fun fluent_started_i0_t2@0 () Bool)
(declare-fun fluent_started_i1_t2@0 () Bool)
(declare-fun fluent_started_i0_t3@0 () Bool)
(declare-fun fluent_started_i1_t3@0 () Bool)
(declare-fun fluent_started_i0_t4@0 () Bool)
(declare-fun fluent_started_i0_t0@1 () Bool)
(declare-fun fluent_ready_i0_t0@0 () Bool)
(declare-fun fluent_ready_i1_t0@0 () Bool)
(declare-fun fluent_ready_i0_t1@0 () Bool)
(declare-fun fluent_ready_i1_t1@0 () Bool)
(declare-fun fluent_ready_i0_t2@0 () Bool)
(declare-fun fluent_ready_i1_t2@0 () Bool)
(declare-fun fluent_ready_i0_t3@0 () Bool)
(declare-fun fluent_ready_i1_t3@0 () Bool)
(declare-fun fluent_ready_i0_t4@0 () Bool)
(declare-fun fluent_ready_i1_t4@0 () Bool)
(declare-fun fluent_started_i0_t3@1 () Bool)
(declare-fun fluent_started_i1_t4@0 () Bool)
(declare-fun fluent_started_i1_t3@1 () Bool)
(declare-fun fluent_started_i0_t4@1 () Bool)
(declare-fun fluent_busy_@0 () Bool)
(declare-fun fluent_started_i1_t4@1 () Bool)
(declare-fun fluent_treated_i0_t0@0 () Bool)
(declare-fun fluent_treated_i1_t0@0 () Bool)
(declare-fun fluent_treated_i0_t1@0 () Bool)
(declare-fun fluent_treated_i1_t1@0 () Bool)
(declare-fun fluent_treated_i0_t2@0 () Bool)
(declare-fun fluent_treated_i1_t2@0 () Bool)
(declare-fun fluent_treated_i0_t3@0 () Bool)
(declare-fun fluent_treated_i1_t3@0 () Bool)
(declare-fun fluent_treated_i0_t4@0 () Bool)
(declare-fun fluent_treated_i1_t4@0 () Bool)
(declare-fun __z3_2 () Real)
(declare-fun fluent_treated_i0_t1@1 () Bool)
(declare-fun fluent_treated_i1_t1@1 () Bool)
(declare-fun fluent_treated_i0_t2@1 () Bool)
(declare-fun fluent_treated_i1_t2@1 () Bool)
(declare-fun fluent_treated_i0_t3@1 () Bool)
(declare-fun fluent_treated_i1_t3@1 () Bool)
(declare-fun fluent_treated_i0_t4@1 () Bool)
(declare-fun fluent_treated_i1_t4@1 () Bool)
(declare-fun __z3_3 () Real)
(declare-fun fluent_ready_i0_t0@1 () Bool)
(declare-fun fluent_ready_i1_t0@1 () Bool)
(declare-fun __z3_4 () Real)
(declare-fun fluent_ready_i0_t1@1 () Bool)
(declare-fun fluent_ready_i1_t1@1 () Bool)
(declare-fun fluent_ready_i0_t2@1 () Bool)
(declare-fun __z3_5 () Real)
(declare-fun fluent_ready_i1_t2@1 () Bool)
(declare-fun fluent_counter_t0@0 () Real)
(declare-fun fluent_ready_i0_t3@1 () Bool)
(declare-fun fluent_ready_i1_t3@1 () Bool)
(declare-fun fluent_counter_t1@0 () Real)
(declare-fun fluent_ready_i0_t4@1 () Bool)
(declare-fun fluent_ready_i1_t4@1 () Bool)
(declare-fun fluent_counter_t2@0 () Real)
(declare-fun fluent_started_i1_t0@1 () Bool)
(declare-fun __z3_6 () Real)
(declare-fun fluent_counter_t3@0 () Real)
(declare-fun act_make_treatment@1 () Bool)
(declare-fun __z3_7 () Real)
(declare-fun fluent_counter_t4@0 () Real)
(declare-fun __z3_0 () Real)
(declare-fun __z3_8 () Real)
(declare-fun fluent_started_i0_t1@1 () Bool)
(declare-fun __z3_1 () Real)
(declare-fun dur_make_treatment@1 () Real)
(declare-fun t@1 () Real)
(declare-fun fluent_started_i1_t1@1 () Bool)
(declare-fun parameter_make_treatment_t@1 () Real)
(declare-fun fluent_started_i0_t2@1 () Bool)
(declare-fun parameter_make_treatment_i@1 () Real)
(declare-fun fluent_started_i1_t2@1 () Bool)
(declare-fun parameter_make_treatment_next@1 () Real)
(declare-fun fluent_treated_i0_t0@1 () Bool)
(declare-fun fluent_treated_i1_t0@1 () Bool)
(declare-fun fluent_counter_t0@1 () Real)
(declare-fun fluent_counter_t1@1 () Real)
(declare-fun fluent_counter_t2@1 () Real)
(assert (let ((.def_0 (= __z3_1 __z3_8))) (let ((.def_1 (= parameter_make_treatment_t@1 6.0))) (let ((.def_2 (or .def_1 .def_0))) (let ((.def_3 (= __z3_1 fluent_counter_t4@1))) (let ((.def_4 (not .def_1))) (let ((.def_5 (or .def_4 .def_3))) (let ((.def_6 (= __z3_8 __z3_7))) (let ((.def_7 (= parameter_make_treatment_t@1 5.0))) (let ((.def_8 (or .def_7 .def_6))) (let ((.def_9 (= __z3_8 fluent_counter_t3@1))) (let ((.def_10 (not .def_7))) (let ((.def_11 (or .def_10 .def_9))) (let ((.def_12 (= __z3_7 __z3_6))) (let ((.def_13 (= parameter_make_treatment_t@1 4.0))) (let ((.def_14 (or .def_13 .def_12))) (let ((.def_15 (= __z3_7 fluent_counter_t2@1))) (let ((.def_16 (not .def_13))) (let ((.def_17 (or .def_16 .def_15))) (let ((.def_18 (= __z3_6 fluent_counter_t0@1))) (let ((.def_19 (= parameter_make_treatment_t@1 3.0))) (let ((.def_20 (or .def_19 .def_18))) (let ((.def_21 (= __z3_6 fluent_counter_t1@1))) (let ((.def_22 (not .def_19))) (let ((.def_23 (or .def_22 .def_21))) (let ((.def_24 (= __z3_0 __z3_5))) (let ((.def_25 (or .def_1 .def_24))) (let ((.def_26 (= __z3_0 fluent_counter_t4@0))) (let ((.def_27 (or .def_4 .def_26))) (let ((.def_28 (= __z3_5 __z3_4))) (let ((.def_29 (or .def_7 .def_28))) (let ((.def_30 (= __z3_5 fluent_counter_t3@0))) (let ((.def_31 (or .def_10 .def_30))) (let ((.def_32 (= __z3_4 __z3_3))) (let ((.def_33 (or .def_13 .def_32))) (let ((.def_34 (= __z3_4 fluent_counter_t2@0))) (let ((.def_35 (or .def_16 .def_34))) (let ((.def_36 (= __z3_3 fluent_counter_t0@0))) (let ((.def_37 (or .def_19 .def_36))) (let ((.def_38 (= __z3_3 fluent_counter_t1@0))) (let ((.def_39 (or .def_22 .def_38))) (let ((.def_40 (= __z3_2 0.0))) (let ((.def_41 (= parameter_make_treatment_i@1 1.0))) (let ((.def_42 (or .def_41 .def_40))) (let ((.def_43 (= __z3_2 1.0))) (let ((.def_44 (not .def_41))) (let ((.def_45 (or .def_44 .def_43))) (let ((.def_46 (<= fluent_counter_t2@1 31.0))) (let ((.def_47 (<= 0.0 fluent_counter_t2@1))) (let ((.def_48 (<= fluent_counter_t1@1 31.0))) (let ((.def_49 (<= 0.0 fluent_counter_t1@1))) (let ((.def_50 (= parameter_make_treatment_i@1 0.0))) (let ((.def_51 (or .def_50 .def_41))) (let ((.def_52 (<= fluent_counter_t0@1 31.0))) (let ((.def_53 (<= 0.0 fluent_counter_t0@1))) (let ((.def_54 (= parameter_make_treatment_t@1 2.0))) (let ((.def_55 (or .def_54 .def_19 .def_13 .def_7 .def_1))) (let ((.def_56 (<= fluent_counter_t4@1 31.0))) (let ((.def_57 (= parameter_make_treatment_next@1 6.0))) (let ((.def_58 (= parameter_make_treatment_next@1 5.0))) (let ((.def_59 (= parameter_make_treatment_next@1 4.0))) (let ((.def_60 (= parameter_make_treatment_next@1 3.0))) (let ((.def_61 (= parameter_make_treatment_next@1 2.0))) (let ((.def_62 (or .def_61 .def_60 .def_59 .def_58 .def_57))) (let ((.def_63 (<= 0.0 fluent_counter_t4@1))) (let ((.def_64 (<= fluent_counter_t3@1 31.0))) (let ((.def_65 (<= 0.0 fluent_counter_t3@1))) (let ((.def_66 (and act_make_treatment@1 true .def_1))) (let ((.def_67 (= fluent_counter_t4@0 fluent_counter_t4@1))) (let ((.def_68 (not .def_67))) (let ((.def_69 (=> .def_68 .def_66))) (let ((.def_70 (and act_make_treatment@1 true .def_7))) (let ((.def_71 (= fluent_counter_t3@0 fluent_counter_t3@1))) (let ((.def_72 (not .def_71))) (let ((.def_73 (=> .def_72 .def_70))) (let ((.def_74 (and act_make_treatment@1 true .def_13))) (let ((.def_75 (= fluent_counter_t2@0 fluent_counter_t2@1))) (let ((.def_76 (not .def_75))) (let ((.def_77 (=> .def_76 .def_74))) (let ((.def_78 (and act_make_treatment@1 true .def_19))) (let ((.def_79 (= fluent_counter_t1@0 fluent_counter_t1@1))) (let ((.def_80 (not .def_79))) (let ((.def_81 (=> .def_80 .def_78))) (let ((.def_82 (and act_make_treatment@1 true .def_54))) (let ((.def_83 (= fluent_counter_t0@0 fluent_counter_t0@1))) (let ((.def_84 (not .def_83))) (let ((.def_85 (=> .def_84 .def_82))) (let ((.def_86 (+ t@1 10.0))) (let ((.def_87 (= t@1 .def_86))) (let ((.def_88 (and act_make_treatment@1 true .def_87 .def_41 .def_57))) (let ((.def_89 (= fluent_ready_i1_t4@0 fluent_ready_i1_t4@1))) (let ((.def_90 (not .def_89))) (let ((.def_91 (=> .def_90 .def_88))) (let ((.def_92 (and act_make_treatment@1 true .def_87 .def_50 .def_57))) (let ((.def_93 (= fluent_ready_i0_t4@0 fluent_ready_i0_t4@1))) (let ((.def_94 (not .def_93))) (let ((.def_95 (=> .def_94 .def_92))) (let ((.def_96 (and act_make_treatment@1 true .def_87 .def_41 .def_58))) (let ((.def_97 (= fluent_ready_i1_t3@0 fluent_ready_i1_t3@1))) (let ((.def_98 (not .def_97))) (let ((.def_99 (=> .def_98 .def_96))) (let ((.def_100 (and act_make_treatment@1 true .def_87 .def_50 .def_58))) (let ((.def_101 (= fluent_ready_i0_t3@0 fluent_ready_i0_t3@1))) (let ((.def_102 (not .def_101))) (let ((.def_103 (=> .def_102 .def_100))) (let ((.def_104 (and act_make_treatment@1 true .def_87 .def_41 .def_59))) (let ((.def_105 (= fluent_ready_i1_t2@0 fluent_ready_i1_t2@1))) (let ((.def_106 (not .def_105))) (let ((.def_107 (=> .def_106 .def_104))) (let ((.def_108 (and act_make_treatment@1 true .def_87 .def_50 .def_59))) (let ((.def_109 (= fluent_ready_i0_t2@0 fluent_ready_i0_t2@1))) (let ((.def_110 (not .def_109))) (let ((.def_111 (=> .def_110 .def_108))) (let ((.def_112 (and act_make_treatment@1 true .def_87 .def_41 .def_60))) (let ((.def_113 (= fluent_ready_i1_t1@0 fluent_ready_i1_t1@1))) (let ((.def_114 (not .def_113))) (let ((.def_115 (=> .def_114 .def_112))) (let ((.def_116 (and act_make_treatment@1 true .def_87 .def_50 .def_60))) (let ((.def_117 (= fluent_ready_i0_t1@0 fluent_ready_i0_t1@1))) (let ((.def_118 (not .def_117))) (let ((.def_119 (=> .def_118 .def_116))) (let ((.def_120 (and act_make_treatment@1 true .def_87 .def_41 .def_61))) (let ((.def_121 (= fluent_ready_i1_t0@0 fluent_ready_i1_t0@1))) (let ((.def_122 (not .def_121))) (let ((.def_123 (=> .def_122 .def_120))) (let ((.def_124 (and act_make_treatment@1 true .def_87 .def_50 .def_61))) (let ((.def_125 (= fluent_ready_i0_t0@0 fluent_ready_i0_t0@1))) (let ((.def_126 (not .def_125))) (let ((.def_127 (=> .def_126 .def_124))) (let ((.def_128 (and act_make_treatment@1 true .def_41 .def_1))) (let ((.def_129 (= fluent_started_i1_t4@0 fluent_started_i1_t4@1))) (let ((.def_130 (not .def_129))) (let ((.def_131 (=> .def_130 .def_128))) (let ((.def_132 (and act_make_treatment@1 true .def_50 .def_1))) (let ((.def_133 (= fluent_started_i0_t4@0 fluent_started_i0_t4@1))) (let ((.def_134 (not .def_133))) (let ((.def_135 (=> .def_134 .def_132))) (let ((.def_136 (and act_make_treatment@1 true .def_41 .def_7))) (let ((.def_137 (= fluent_started_i1_t3@0 fluent_started_i1_t3@1))) (let ((.def_138 (not .def_137))) (let ((.def_139 (=> .def_138 .def_136))) (let ((.def_140 (and act_make_treatment@1 true .def_50 .def_7))) (let ((.def_141 (= fluent_started_i0_t3@0 fluent_started_i0_t3@1))) (let ((.def_142 (not .def_141))) (let ((.def_143 (=> .def_142 .def_140))) (let ((.def_144 (and act_make_treatment@1 true .def_41 .def_13))) (let ((.def_145 (= fluent_started_i1_t2@0 fluent_started_i1_t2@1))) (let ((.def_146 (not .def_145))) (let ((.def_147 (=> .def_146 .def_144))) (let ((.def_148 (and act_make_treatment@1 true .def_50 .def_13))) (let ((.def_149 (= fluent_started_i0_t2@0 fluent_started_i0_t2@1))) (let ((.def_150 (not .def_149))) (let ((.def_151 (=> .def_150 .def_148))) (let ((.def_152 (and act_make_treatment@1 true .def_41 .def_19))) (let ((.def_153 (= fluent_started_i1_t1@0 fluent_started_i1_t1@1))) (let ((.def_154 (not .def_153))) (let ((.def_155 (=> .def_154 .def_152))) (let ((.def_156 (and act_make_treatment@1 true .def_50 .def_19))) (let ((.def_157 (= fluent_started_i0_t1@0 fluent_started_i0_t1@1))) (let ((.def_158 (not .def_157))) (let ((.def_159 (=> .def_158 .def_156))) (let ((.def_160 (and act_make_treatment@1 true .def_41 .def_54))) (let ((.def_161 (= fluent_started_i1_t0@0 fluent_started_i1_t0@1))) (let ((.def_162 (not .def_161))) (let ((.def_163 (=> .def_162 .def_160))) (let ((.def_164 (and act_make_treatment@1 true .def_50 .def_54))) (let ((.def_165 (= fluent_started_i0_t0@0 fluent_started_i0_t0@1))) (let ((.def_166 (not .def_165))) (let ((.def_167 (=> .def_166 .def_164))) (let ((.def_168 (+ t@1 4.0))) (let ((.def_169 (= t@1 .def_168))) (let ((.def_170 (and act_make_treatment@1 true .def_169 .def_41 .def_1))) (let ((.def_171 (= fluent_treated_i1_t4@0 fluent_treated_i1_t4@1))) (let ((.def_172 (not .def_171))) (let ((.def_173 (=> .def_172 .def_170))) (let ((.def_174 (and act_make_treatment@1 true .def_169 .def_50 .def_1))) (let ((.def_175 (= fluent_treated_i0_t4@0 fluent_treated_i0_t4@1))) (let ((.def_176 (not .def_175))) (let ((.def_177 (=> .def_176 .def_174))) (let ((.def_178 (and act_make_treatment@1 true .def_169 .def_41 .def_7))) (let ((.def_179 (= fluent_treated_i1_t3@0 fluent_treated_i1_t3@1))) (let ((.def_180 (not .def_179))) (let ((.def_181 (=> .def_180 .def_178))) (let ((.def_182 (and act_make_treatment@1 true .def_169 .def_50 .def_7))) (let ((.def_183 (= fluent_treated_i0_t3@0 fluent_treated_i0_t3@1))) (let ((.def_184 (not .def_183))) (let ((.def_185 (=> .def_184 .def_182))) (let ((.def_186 (and act_make_treatment@1 true .def_169 .def_41 .def_13))) (let ((.def_187 (= fluent_treated_i1_t2@0 fluent_treated_i1_t2@1))) (let ((.def_188 (not .def_187))) (let ((.def_189 (=> .def_188 .def_186))) (let ((.def_190 (and act_make_treatment@1 true .def_169 .def_50 .def_13))) (let ((.def_191 (= fluent_treated_i0_t2@0 fluent_treated_i0_t2@1))) (let ((.def_192 (not .def_191))) (let ((.def_193 (=> .def_192 .def_190))) (let ((.def_194 (and act_make_treatment@1 true .def_169 .def_41 .def_19))) (let ((.def_195 (= fluent_treated_i1_t1@0 fluent_treated_i1_t1@1))) (let ((.def_196 (not .def_195))) (let ((.def_197 (=> .def_196 .def_194))) (let ((.def_198 (and act_make_treatment@1 true .def_169 .def_50 .def_19))) (let ((.def_199 (= fluent_treated_i0_t1@0 fluent_treated_i0_t1@1))) (let ((.def_200 (not .def_199))) (let ((.def_201 (=> .def_200 .def_198))) (let ((.def_202 (and act_make_treatment@1 true .def_169 .def_41 .def_54))) (let ((.def_203 (= fluent_treated_i1_t0@0 fluent_treated_i1_t0@1))) (let ((.def_204 (not .def_203))) (let ((.def_205 (=> .def_204 .def_202))) (let ((.def_206 (and act_make_treatment@1 true .def_169 .def_50 .def_54))) (let ((.def_207 (= fluent_treated_i0_t0@0 fluent_treated_i0_t0@1))) (let ((.def_208 (not .def_207))) (let ((.def_209 (=> .def_208 .def_206))) (let ((.def_210 (and act_make_treatment@1 true .def_169))) (let ((.def_211 (and act_make_treatment@1 true))) (let ((.def_212 (and .def_211 .def_210))) (let ((.def_213 (not .def_212))) (let ((.def_214 (or .def_211 .def_210))) (let ((.def_215 (= fluent_busy_@0 fluent_busy_@1))) (let ((.def_216 (not .def_215))) (let ((.def_217 (=> .def_216 .def_214))) (let ((.def_218 (<= 0.0 t@1))) (let ((.def_219 (and .def_41 .def_61))) (let ((.def_220 (or .def_219 fluent_ready_i0_t0@1))) (let ((.def_221 (not .def_219))) (let ((.def_222 (or .def_221 fluent_ready_i1_t0@1))) (let ((.def_223 (and .def_222 .def_220))) (let ((.def_224 (and .def_50 .def_60))) (let ((.def_225 (or .def_224 .def_223))) (let ((.def_226 (not .def_224))) (let ((.def_227 (or .def_226 fluent_ready_i0_t1@1))) (let ((.def_228 (and .def_227 .def_225))) (let ((.def_229 (and .def_41 .def_60))) (let ((.def_230 (or .def_229 .def_228))) (let ((.def_231 (not .def_229))) (let ((.def_232 (or .def_231 fluent_ready_i1_t1@1))) (let ((.def_233 (and .def_232 .def_230))) (let ((.def_234 (and .def_50 .def_59))) (let ((.def_235 (or .def_234 .def_233))) (let ((.def_236 (not .def_234))) (let ((.def_237 (or .def_236 fluent_ready_i0_t2@1))) (let ((.def_238 (and .def_237 .def_235))) (let ((.def_239 (and .def_41 .def_59))) (let ((.def_240 (or .def_239 .def_238))) (let ((.def_241 (not .def_239))) (let ((.def_242 (or .def_241 fluent_ready_i1_t2@1))) (let ((.def_243 (and .def_242 .def_240))) (let ((.def_244 (and .def_50 .def_58))) (let ((.def_245 (or .def_244 .def_243))) (let ((.def_246 (not .def_244))) (let ((.def_247 (or .def_246 fluent_ready_i0_t3@1))) (let ((.def_248 (and .def_247 .def_245))) (let ((.def_249 (and .def_41 .def_58))) (let ((.def_250 (or .def_249 .def_248))) (let ((.def_251 (not .def_249))) (let ((.def_252 (or .def_251 fluent_ready_i1_t3@1))) (let ((.def_253 (and .def_252 .def_250))) (let ((.def_254 (and .def_50 .def_57))) (let ((.def_255 (or .def_254 .def_253))) (let ((.def_256 (not .def_254))) (let ((.def_257 (or .def_256 fluent_ready_i0_t4@1))) (let ((.def_258 (and .def_257 .def_255))) (let ((.def_259 (and .def_41 .def_57))) (let ((.def_260 (or .def_259 .def_258))) (let ((.def_261 (not .def_259))) (let ((.def_262 (or .def_261 fluent_ready_i1_t4@1))) (let ((.def_263 (and .def_262 .def_260))) (let ((.def_264 (= .def_263 true))) (let ((.def_265 (=> true .def_264))) (let ((.def_266 (and .def_87 .def_265))) (let ((.def_267 (= fluent_busy_@1 false))) (let ((.def_268 (=> true .def_267))) (let ((.def_269 (and .def_41 .def_54))) (let ((.def_270 (or .def_269 fluent_treated_i0_t0@1))) (let ((.def_271 (not .def_269))) (let ((.def_272 (or .def_271 fluent_treated_i1_t0@1))) (let ((.def_273 (and .def_272 .def_270))) (let ((.def_274 (and .def_50 .def_19))) (let ((.def_275 (or .def_274 .def_273))) (let ((.def_276 (not .def_274))) (let ((.def_277 (or .def_276 fluent_treated_i0_t1@1))) (let ((.def_278 (and .def_277 .def_275))) (let ((.def_279 (and .def_41 .def_19))) (let ((.def_280 (or .def_279 .def_278))) (let ((.def_281 (not .def_279))) (let ((.def_282 (or .def_281 fluent_treated_i1_t1@1))) (let ((.def_283 (and .def_282 .def_280))) (let ((.def_284 (and .def_50 .def_13))) (let ((.def_285 (or .def_284 .def_283))) (let ((.def_286 (not .def_284))) (let ((.def_287 (or .def_286 fluent_treated_i0_t2@1))) (let ((.def_288 (and .def_287 .def_285))) (let ((.def_289 (and .def_41 .def_13))) (let ((.def_290 (or .def_289 .def_288))) (let ((.def_291 (not .def_289))) (let ((.def_292 (or .def_291 fluent_treated_i1_t2@1))) (let ((.def_293 (and .def_292 .def_290))) (let ((.def_294 (and .def_50 .def_7))) (let ((.def_295 (or .def_294 .def_293))) (let ((.def_296 (not .def_294))) (let ((.def_297 (or .def_296 fluent_treated_i0_t3@1))) (let ((.def_298 (and .def_297 .def_295))) (let ((.def_299 (and .def_41 .def_7))) (let ((.def_300 (or .def_299 .def_298))) (let ((.def_301 (not .def_299))) (let ((.def_302 (or .def_301 fluent_treated_i1_t3@1))) (let ((.def_303 (and .def_302 .def_300))) (let ((.def_304 (and .def_50 .def_1))) (let ((.def_305 (or .def_304 .def_303))) (let ((.def_306 (not .def_304))) (let ((.def_307 (or .def_306 fluent_treated_i0_t4@1))) (let ((.def_308 (and .def_307 .def_305))) (let ((.def_309 (and .def_41 .def_1))) (let ((.def_310 (or .def_309 .def_308))) (let ((.def_311 (not .def_309))) (let ((.def_312 (or .def_311 fluent_treated_i1_t4@1))) (let ((.def_313 (and .def_312 .def_310))) (let ((.def_314 (= .def_313 true))) (let ((.def_315 (=> true .def_314))) (let ((.def_316 (and .def_169 .def_315 .def_268))) (let ((.def_317 (or .def_269 fluent_started_i0_t0@1))) (let ((.def_318 (or .def_271 fluent_started_i1_t0@1))) (let ((.def_319 (and .def_318 .def_317))) (let ((.def_320 (or .def_274 .def_319))) (let ((.def_321 (or .def_276 fluent_started_i0_t1@1))) (let ((.def_322 (and .def_321 .def_320))) (let ((.def_323 (or .def_279 .def_322))) (let ((.def_324 (or .def_281 fluent_started_i1_t1@1))) (let ((.def_325 (and .def_324 .def_323))) (let ((.def_326 (or .def_284 .def_325))) (let ((.def_327 (or .def_286 fluent_started_i0_t2@1))) (let ((.def_328 (and .def_327 .def_326))) (let ((.def_329 (or .def_289 .def_328))) (let ((.def_330 (or .def_291 fluent_started_i1_t2@1))) (let ((.def_331 (and .def_330 .def_329))) (let ((.def_332 (or .def_294 .def_331))) (let ((.def_333 (or .def_296 fluent_started_i0_t3@1))) (let ((.def_334 (and .def_333 .def_332))) (let ((.def_335 (or .def_299 .def_334))) (let ((.def_336 (or .def_301 fluent_started_i1_t3@1))) (let ((.def_337 (and .def_336 .def_335))) (let ((.def_338 (or .def_304 .def_337))) (let ((.def_339 (or .def_306 fluent_started_i0_t4@1))) (let ((.def_340 (and .def_339 .def_338))) (let ((.def_341 (or .def_309 .def_340))) (let ((.def_342 (or .def_311 fluent_started_i1_t4@1))) (let ((.def_343 (and .def_342 .def_341))) (let ((.def_344 (= .def_343 true))) (let ((.def_345 (=> true .def_344))) (let ((.def_346 (= fluent_busy_@1 true))) (let ((.def_347 (=> true .def_346))) (let ((.def_348 (+ __z3_0 1.0))) (let ((.def_349 (= __z3_1 .def_348))) (let ((.def_350 (=> true .def_349))) (let ((.def_351 (= t@1 t@1))) (let ((.def_352 (and .def_351 .def_350 .def_347 .def_345))) (let ((.def_353 (or .def_219 fluent_started_i0_t0@0))) (let ((.def_354 (or .def_221 fluent_started_i1_t0@0))) (let ((.def_355 (and .def_354 .def_353))) (let ((.def_356 (or .def_224 .def_355))) (let ((.def_357 (or .def_226 fluent_started_i0_t1@0))) (let ((.def_358 (and .def_357 .def_356))) (let ((.def_359 (or .def_229 .def_358))) (let ((.def_360 (or .def_231 fluent_started_i1_t1@0))) (let ((.def_361 (and .def_360 .def_359))) (let ((.def_362 (or .def_234 .def_361))) (let ((.def_363 (or .def_236 fluent_started_i0_t2@0))) (let ((.def_364 (and .def_363 .def_362))) (let ((.def_365 (or .def_239 .def_364))) (let ((.def_366 (or .def_241 fluent_started_i1_t2@0))) (let ((.def_367 (and .def_366 .def_365))) (let ((.def_368 (or .def_244 .def_367))) (let ((.def_369 (or .def_246 fluent_started_i0_t3@0))) (let ((.def_370 (and .def_369 .def_368))) (let ((.def_371 (or .def_249 .def_370))) (let ((.def_372 (or .def_251 fluent_started_i1_t3@0))) (let ((.def_373 (and .def_372 .def_371))) (let ((.def_374 (or .def_254 .def_373))) (let ((.def_375 (or .def_256 fluent_started_i0_t4@0))) (let ((.def_376 (and .def_375 .def_374))) (let ((.def_377 (or .def_259 .def_376))) (let ((.def_378 (or .def_261 fluent_started_i1_t4@0))) (let ((.def_379 (and .def_378 .def_377))) (let ((.def_380 (+ t@1 dur_make_treatment@1))) (let ((.def_381 (<= .def_380 t@1))) (let ((.def_382 (< (- 1.0) .def_380))) (let ((.def_383 (and .def_382 .def_381))) (let ((.def_384 (=> .def_383 .def_379))) (let ((.def_385 (or .def_269 fluent_ready_i0_t0@0))) (let ((.def_386 (or .def_271 fluent_ready_i1_t0@0))) (let ((.def_387 (and .def_386 .def_385))) (let ((.def_388 (or .def_274 .def_387))) (let ((.def_389 (or .def_276 fluent_ready_i0_t1@0))) (let ((.def_390 (and .def_389 .def_388))) (let ((.def_391 (or .def_279 .def_390))) (let ((.def_392 (or .def_281 fluent_ready_i1_t1@0))) (let ((.def_393 (and .def_392 .def_391))) (let ((.def_394 (or .def_284 .def_393))) (let ((.def_395 (or .def_286 fluent_ready_i0_t2@0))) (let ((.def_396 (and .def_395 .def_394))) (let ((.def_397 (or .def_289 .def_396))) (let ((.def_398 (or .def_291 fluent_ready_i1_t2@0))) (let ((.def_399 (and .def_398 .def_397))) (let ((.def_400 (or .def_294 .def_399))) (let ((.def_401 (or .def_296 fluent_ready_i0_t3@0))) (let ((.def_402 (and .def_401 .def_400))) (let ((.def_403 (or .def_299 .def_402))) (let ((.def_404 (or .def_301 fluent_ready_i1_t3@0))) (let ((.def_405 (and .def_404 .def_403))) (let ((.def_406 (or .def_304 .def_405))) (let ((.def_407 (or .def_306 fluent_ready_i0_t4@0))) (let ((.def_408 (and .def_407 .def_406))) (let ((.def_409 (or .def_309 .def_408))) (let ((.def_410 (or .def_311 fluent_ready_i1_t4@0))) (let ((.def_411 (and .def_410 .def_409))) (let ((.def_412 (or .def_269 fluent_started_i0_t0@0))) (let ((.def_413 (or .def_271 fluent_started_i1_t0@0))) (let ((.def_414 (and .def_413 .def_412))) (let ((.def_415 (or .def_274 .def_414))) (let ((.def_416 (or .def_276 fluent_started_i0_t1@0))) (let ((.def_417 (and .def_416 .def_415))) (let ((.def_418 (or .def_279 .def_417))) (let ((.def_419 (or .def_281 fluent_started_i1_t1@0))) (let ((.def_420 (and .def_419 .def_418))) (let ((.def_421 (or .def_284 .def_420))) (let ((.def_422 (or .def_286 fluent_started_i0_t2@0))) (let ((.def_423 (and .def_422 .def_421))) (let ((.def_424 (or .def_289 .def_423))) (let ((.def_425 (or .def_291 fluent_started_i1_t2@0))) (let ((.def_426 (and .def_425 .def_424))) (let ((.def_427 (or .def_294 .def_426))) (let ((.def_428 (or .def_296 fluent_started_i0_t3@0))) (let ((.def_429 (and .def_428 .def_427))) (let ((.def_430 (or .def_299 .def_429))) (let ((.def_431 (or .def_301 fluent_started_i1_t3@0))) (let ((.def_432 (and .def_431 .def_430))) (let ((.def_433 (or .def_304 .def_432))) (let ((.def_434 (or .def_306 fluent_started_i0_t4@0))) (let ((.def_435 (and .def_434 .def_433))) (let ((.def_436 (or .def_309 .def_435))) (let ((.def_437 (or .def_311 fluent_started_i1_t4@0))) (let ((.def_438 (and .def_437 .def_436))) (let ((.def_439 (not .def_438))) (let ((.def_440 (or .def_269 fluent_treated_i0_t0@0))) (let ((.def_441 (or .def_271 fluent_treated_i1_t0@0))) (let ((.def_442 (and .def_441 .def_440))) (let ((.def_443 (or .def_274 .def_442))) (let ((.def_444 (or .def_276 fluent_treated_i0_t1@0))) (let ((.def_445 (and .def_444 .def_443))) (let ((.def_446 (or .def_279 .def_445))) (let ((.def_447 (or .def_281 fluent_treated_i1_t1@0))) (let ((.def_448 (and .def_447 .def_446))) (let ((.def_449 (or .def_284 .def_448))) (let ((.def_450 (or .def_286 fluent_treated_i0_t2@0))) (let ((.def_451 (and .def_450 .def_449))) (let ((.def_452 (or .def_289 .def_451))) (let ((.def_453 (or .def_291 fluent_treated_i1_t2@0))) (let ((.def_454 (and .def_453 .def_452))) (let ((.def_455 (or .def_294 .def_454))) (let ((.def_456 (or .def_296 fluent_treated_i0_t3@0))) (let ((.def_457 (and .def_456 .def_455))) (let ((.def_458 (or .def_299 .def_457))) (let ((.def_459 (or .def_301 fluent_treated_i1_t3@0))) (let ((.def_460 (and .def_459 .def_458))) (let ((.def_461 (or .def_304 .def_460))) (let ((.def_462 (or .def_306 fluent_treated_i0_t4@0))) (let ((.def_463 (and .def_462 .def_461))) (let ((.def_464 (or .def_309 .def_463))) (let ((.def_465 (or .def_311 fluent_treated_i1_t4@0))) (let ((.def_466 (and .def_465 .def_464))) (let ((.def_467 (not .def_466))) (let ((.def_468 (not fluent_busy_@0))) (let ((.def_469 (and .def_19 .def_61))) (let ((.def_470 (or .def_469 false))) (let ((.def_471 (not .def_469))) (let ((.def_472 (or .def_471 false))) (let ((.def_473 (and .def_472 .def_470))) (let ((.def_474 (and .def_13 .def_61))) (let ((.def_475 (or .def_474 .def_473))) (let ((.def_476 (not .def_474))) (let ((.def_477 (or .def_476 false))) (let ((.def_478 (and .def_477 .def_475))) (let ((.def_479 (and .def_7 .def_61))) (let ((.def_480 (or .def_479 .def_478))) (let ((.def_481 (not .def_479))) (let ((.def_482 (or .def_481 false))) (let ((.def_483 (and .def_482 .def_480))) (let ((.def_484 (and .def_1 .def_61))) (let ((.def_485 (or .def_484 .def_483))) (let ((.def_486 (not .def_484))) (let ((.def_487 (or .def_486 false))) (let ((.def_488 (and .def_487 .def_485))) (let ((.def_489 (and .def_54 .def_60))) (let ((.def_490 (or .def_489 .def_488))) (let ((.def_491 (not .def_489))) (let ((.def_492 (or .def_491 true))) (let ((.def_493 (and .def_492 .def_490))) (let ((.def_494 (and .def_19 .def_60))) (let ((.def_495 (or .def_494 .def_493))) (let ((.def_496 (not .def_494))) (let ((.def_497 (or .def_496 false))) (let ((.def_498 (and .def_497 .def_495))) (let ((.def_499 (and .def_13 .def_60))) (let ((.def_500 (or .def_499 .def_498))) (let ((.def_501 (not .def_499))) (let ((.def_502 (or .def_501 false))) (let ((.def_503 (and .def_502 .def_500))) (let ((.def_504 (and .def_7 .def_60))) (let ((.def_505 (or .def_504 .def_503))) (let ((.def_506 (not .def_504))) (let ((.def_507 (or .def_506 false))) (let ((.def_508 (and .def_507 .def_505))) (let ((.def_509 (and .def_1 .def_60))) (let ((.def_510 (or .def_509 .def_508))) (let ((.def_511 (not .def_509))) (let ((.def_512 (or .def_511 false))) (let ((.def_513 (and .def_512 .def_510))) (let ((.def_514 (and .def_54 .def_59))) (let ((.def_515 (or .def_514 .def_513))) (let ((.def_516 (not .def_514))) (let ((.def_517 (or .def_516 false))) (let ((.def_518 (and .def_517 .def_515))) (let ((.def_519 (and .def_19 .def_59))) (let ((.def_520 (or .def_519 .def_518))) (let ((.def_521 (not .def_519))) (let ((.def_522 (or .def_521 true))) (let ((.def_523 (and .def_522 .def_520))) (let ((.def_524 (and .def_13 .def_59))) (let ((.def_525 (or .def_524 .def_523))) (let ((.def_526 (not .def_524))) (let ((.def_527 (or .def_526 false))) (let ((.def_528 (and .def_527 .def_525))) (let ((.def_529 (and .def_7 .def_59))) (let ((.def_530 (or .def_529 .def_528))) (let ((.def_531 (not .def_529))) (let ((.def_532 (or .def_531 false))) (let ((.def_533 (and .def_532 .def_530))) (let ((.def_534 (and .def_1 .def_59))) (let ((.def_535 (or .def_534 .def_533))) (let ((.def_536 (not .def_534))) (let ((.def_537 (or .def_536 false))) (let ((.def_538 (and .def_537 .def_535))) (let ((.def_539 (and .def_54 .def_58))) (let ((.def_540 (or .def_539 .def_538))) (let ((.def_541 (not .def_539))) (let ((.def_542 (or .def_541 false))) (let ((.def_543 (and .def_542 .def_540))) (let ((.def_544 (and .def_19 .def_58))) (let ((.def_545 (or .def_544 .def_543))) (let ((.def_546 (not .def_544))) (let ((.def_547 (or .def_546 false))) (let ((.def_548 (and .def_547 .def_545))) (let ((.def_549 (and .def_13 .def_58))) (let ((.def_550 (or .def_549 .def_548))) (let ((.def_551 (not .def_549))) (let ((.def_552 (or .def_551 true))) (let ((.def_553 (and .def_552 .def_550))) (let ((.def_554 (and .def_7 .def_58))) (let ((.def_555 (or .def_554 .def_553))) (let ((.def_556 (not .def_554))) (let ((.def_557 (or .def_556 false))) (let ((.def_558 (and .def_557 .def_555))) (let ((.def_559 (and .def_1 .def_58))) (let ((.def_560 (or .def_559 .def_558))) (let ((.def_561 (not .def_559))) (let ((.def_562 (or .def_561 false))) (let ((.def_563 (and .def_562 .def_560))) (let ((.def_564 (and .def_54 .def_57))) (let ((.def_565 (or .def_564 .def_563))) (let ((.def_566 (not .def_564))) (let ((.def_567 (or .def_566 false))) (let ((.def_568 (and .def_567 .def_565))) (let ((.def_569 (and .def_19 .def_57))) (let ((.def_570 (or .def_569 .def_568))) (let ((.def_571 (not .def_569))) (let ((.def_572 (or .def_571 false))) (let ((.def_573 (and .def_572 .def_570))) (let ((.def_574 (and .def_13 .def_57))) (let ((.def_575 (or .def_574 .def_573))) (let ((.def_576 (not .def_574))) (let ((.def_577 (or .def_576 false))) (let ((.def_578 (and .def_577 .def_575))) (let ((.def_579 (and .def_7 .def_57))) (let ((.def_580 (or .def_579 .def_578))) (let ((.def_581 (not .def_579))) (let ((.def_582 (or .def_581 true))) (let ((.def_583 (and .def_582 .def_580))) (let ((.def_584 (and .def_1 .def_57))) (let ((.def_585 (or .def_584 .def_583))) (let ((.def_586 (not .def_584))) (let ((.def_587 (or .def_586 false))) (let ((.def_588 (and .def_587 .def_585))) (let ((.def_589 (= __z3_2 __z3_0))) (let ((.def_590 (and .def_589 .def_588 .def_468 .def_467 .def_439 .def_411))) (let ((.def_591 (<= t@1 t@1))) (let ((.def_592 (< (- 1.0) t@1))) (let ((.def_593 (and .def_592 .def_591))) (let ((.def_594 (=> .def_593 .def_590))) (let ((.def_595 (<= dur_make_treatment@1 15.0))) (let ((.def_596 (<= 15.0 dur_make_treatment@1))) (let ((.def_597 (and .def_596 .def_595))) (let ((.def_598 (and .def_597 .def_381 .def_594 .def_384 .def_352 .def_316 .def_266))) (let ((.def_599 (=> act_make_treatment@1 .def_598))) (let ((.def_600 (<= fluent_counter_t4@0 31.0))) (let ((.def_601 (<= 0.0 fluent_counter_t4@0))) (let ((.def_602 (<= fluent_counter_t3@0 31.0))) (let ((.def_603 (<= 0.0 fluent_counter_t3@0))) (let ((.def_604 (<= fluent_counter_t2@0 31.0))) (let ((.def_605 (<= 0.0 fluent_counter_t2@0))) (let ((.def_606 (<= fluent_counter_t1@0 31.0))) (let ((.def_607 (<= 0.0 fluent_counter_t1@0))) (let ((.def_608 (<= fluent_counter_t0@0 31.0))) (let ((.def_609 (<= 0.0 fluent_counter_t0@0))) (let ((.def_610 (= fluent_counter_t4@0 0.0))) (let ((.def_611 (= fluent_counter_t3@0 0.0))) (let ((.def_612 (= fluent_counter_t2@0 0.0))) (let ((.def_613 (= fluent_counter_t1@0 0.0))) (let ((.def_614 (= fluent_counter_t0@0 0.0))) (let ((.def_615 (= false false))) (let ((.def_616 (= fluent_ready_i1_t4@0 false))) (let ((.def_617 (= fluent_ready_i0_t4@0 false))) (let ((.def_618 (= fluent_ready_i1_t3@0 false))) (let ((.def_619 (= fluent_ready_i0_t3@0 false))) (let ((.def_620 (= fluent_ready_i1_t2@0 false))) (let ((.def_621 (= fluent_ready_i0_t2@0 false))) (let ((.def_622 (= fluent_ready_i1_t1@0 false))) (let ((.def_623 (= fluent_ready_i0_t1@0 false))) (let ((.def_624 (= fluent_started_i1_t3@0 false))) (let ((.def_625 (= fluent_started_i0_t3@0 false))) (let ((.def_626 (= fluent_started_i1_t2@0 false))) (let ((.def_627 (= fluent_started_i0_t2@0 false))) (let ((.def_628 (= fluent_started_i1_t1@0 false))) (let ((.def_629 (= fluent_started_i0_t1@0 false))) (let ((.def_630 (= fluent_started_i1_t0@0 false))) (let ((.def_631 (= fluent_started_i0_t0@0 false))) (let ((.def_632 (= fluent_treated_i1_t4@0 false))) (let ((.def_633 (= fluent_treated_i0_t4@0 false))) (let ((.def_634 (= fluent_treated_i1_t3@0 false))) (let ((.def_635 (= fluent_treated_i0_t3@0 false))) (let ((.def_636 (= fluent_treated_i1_t2@0 false))) (let ((.def_637 (= fluent_treated_i0_t2@0 false))) (let ((.def_638 (= fluent_treated_i1_t1@0 false))) (let ((.def_639 (= fluent_treated_i0_t1@0 false))) (let ((.def_640 (= fluent_treated_i1_t0@0 false))) (let ((.def_641 (= fluent_treated_i0_t0@0 false))) (let ((.def_642 (= fluent_busy_@0 false))) (let ((.def_643 (= fluent_ready_i1_t0@0 true))) (let ((.def_644 (= fluent_started_i1_t4@0 true))) (let ((.def_645 (= fluent_ready_i0_t0@0 true))) (let ((.def_646 (= fluent_started_i0_t4@0 true))) (let ((.def_647 (= true true))) (let ((.def_648 (= 1.0 1.0))) (let ((.def_649 (= 0.0 0.0))) (let ((.def_650 (and .def_649 .def_648 .def_647 .def_647 .def_647 .def_647 .def_646 .def_645 .def_644 .def_643 .def_642 .def_641 .def_640 .def_639 .def_638 .def_637 .def_636 .def_635 .def_634 .def_633 .def_632 .def_631 .def_630 .def_629 .def_628 .def_627 .def_626 .def_625 .def_624 .def_623 .def_622 .def_621 .def_620 .def_619 .def_618 .def_617 .def_616 .def_615 .def_615 .def_615 .def_615 .def_615 .def_615 .def_615 .def_615 .def_615 .def_615 .def_615 .def_615 .def_615 .def_615 .def_615 .def_615 .def_615 .def_615 .def_615 .def_615 .def_615 .def_614 .def_613 .def_612 .def_611 .def_610 .def_609 .def_608 .def_607 .def_606 .def_605 .def_604 .def_603 .def_602 .def_601 .def_600 .def_599 .def_218 .def_217 .def_213 .def_209 .def_205 .def_201 .def_197 .def_193 .def_189 .def_185 .def_181 .def_177 .def_173 .def_167 .def_163 .def_159 .def_155 .def_151 .def_147 .def_143 .def_139 .def_135 .def_131 .def_127 .def_123 .def_119 .def_115 .def_111 .def_107 .def_103 .def_99 .def_95 .def_91 .def_85 .def_81 .def_77 .def_73 .def_69 .def_65 .def_64 .def_63 .def_62 .def_56 .def_55 .def_53 .def_52 .def_51 .def_49 .def_48 .def_47 .def_46 .def_45 .def_42 .def_39 .def_37 .def_35 .def_33 .def_31 .def_29 .def_27 .def_25 .def_23 .def_20 .def_17 .def_14 .def_11 .def_8 .def_5 .def_2))) .def_650))))))))))))))))))))))))))))))))))))))))))))))))))))))))))))))))))))))))))))))))))))))))))))))))))))))))))))))))))))))))))))))))))))))))))))))))))))))))))))))))))))))))))))))))))))))))))))))))))))))))))))))))))))))))))))))))))))))))))))))))))))))))))))))))))))))))))))))))))))))))))))))))))))))))))))))))))))))))))))))))))))))))))))))))))))))))))))))))))))))))))))))))))))))))))))))))))))))))))))))))))))))))))))))))))))))))))))))))))))))))))))))))))))))))))))))))))))))))))))))))))))))))))))))))))))))))))))))))))))))))))))))))))))))))))))))))))))))))))))))))))))))))))))))))))))))))))))))))))))))))))))))))))))))))))))))))))))))))))))))))))))))))))))
(check-sat)
